p edge 85 285
e 1 5
e 1 8
e 1 9
e 1 17
e 1 18
e 1 20
e 1 21
e 1 27
e 1 33
e 1 37
e 1 38
e 1 48
e 1 74
e 1 76
e 1 80
e 2 7
e 2 9
e 2 12
e 2 14
e 2 25
e 2 28
e 2 30
e 2 31
e 2 43
e 2 49
e 2 60
e 3 4
e 3 12
e 3 14
e 3 15
e 3 20
e 3 21
e 3 24
e 3 27
e 3 35
e 3 47
e 3 51
e 3 66
e 3 75
e 4 5
e 4 9
e 4 16
e 4 19
e 4 23
e 4 27
e 4 28
e 4 31
e 4 36
e 4 37
e 4 38
e 4 44
e 4 47
e 4 60
e 5 13
e 5 19
e 5 30
e 5 32
e 5 33
e 5 37
e 5 38
e 5 51
e 5 57
e 5 63
e 5 68
e 5 78
e 5 84
e 5 85
e 6 10
e 6 11
e 6 15
e 6 26
e 6 39
e 6 45
e 6 50
e 6 62
e 6 65
e 6 67
e 6 69
e 7 10
e 7 14
e 7 29
e 7 34
e 7 36
e 7 38
e 7 59
e 7 61
e 7 72
e 8 14
e 8 19
e 8 22
e 8 48
e 8 71
e 8 76
e 9 19
e 9 25
e 9 35
e 9 36
e 9 37
e 9 43
e 10 11
e 10 18
e 10 43
e 10 45
e 10 50
e 10 59
e 10 72
e 11 12
e 11 29
e 11 31
e 11 36
e 11 49
e 11 53
e 11 61
e 11 70
e 12 15
e 12 25
e 12 31
e 12 43
e 12 49
e 12 53
e 12 61
e 12 70
e 13 19
e 13 20
e 13 27
e 13 30
e 13 48
e 13 51
e 13 57
e 13 63
e 13 78
e 14 42
e 15 26
e 15 39
e 15 54
e 15 55
e 15 62
e 15 65
e 16 21
e 16 25
e 16 33
e 16 35
e 16 44
e 16 51
e 17 21
e 17 42
e 17 73
e 17 80
e 18 32
e 18 45
e 18 46
e 18 49
e 18 52
e 18 67
e 18 74
e 19 22
e 19 30
e 19 36
e 19 51
e 19 57
e 19 63
e 20 24
e 20 42
e 20 48
e 20 66
e 20 75
e 21 33
e 21 35
e 21 51
e 21 80
e 22 32
e 22 40
e 22 47
e 23 29
e 23 37
e 23 38
e 23 41
e 23 44
e 23 47
e 23 52
e 24 42
e 24 50
e 25 28
e 25 31
e 25 36
e 25 44
e 26 31
e 26 39
e 26 54
e 26 55
e 26 58
e 26 61
e 26 62
e 26 65
e 27 30
e 27 47
e 27 60
e 27 68
e 27 78
e 28 30
e 28 31
e 28 44
e 28 53
e 28 55
e 28 56
e 28 79
e 29 33
e 29 34
e 29 36
e 29 37
e 29 47
e 29 61
e 29 70
e 30 51
e 30 57
e 30 63
e 31 53
e 31 55
e 31 60
e 31 61
e 32 52
e 32 67
e 33 34
e 33 35
e 33 37
e 33 38
e 34 36
e 34 37
e 34 39
e 34 57
e 34 61
e 34 64
e 35 38
e 35 39
e 35 51
e 36 61
e 36 70
e 37 38
e 37 44
e 38 39
e 38 44
e 39 57
e 39 62
e 39 64
e 39 65
e 39 82
e 40 68
e 41 74
e 42 73
e 43 49
e 43 56
e 43 77
e 46 65
e 46 67
e 46 69
e 48 71
e 49 75
e 50 66
e 51 63
e 52 67
e 53 55
e 53 61
e 53 79
e 54 55
e 54 81
e 55 61
e 55 79
e 56 77
e 57 63
e 57 64
e 58 62
e 59 72
e 59 77
e 62 64
e 62 65
e 62 82
e 64 82
e 65 67
e 65 69
e 66 75
e 67 69
e 68 78
e 71 76
e 81 83
e 84 85
